<?xml version = "1.0" standalone="yes"?>
<!-- This file has been generated by DOcplex version 2.23.222  -->
<CPLEXSolution version="1.0">
 <header
   problemName="CVRP"
   objectiveValue="10180.8"
  />
 <variables>
  <variable name="x_0_1" index="0" value="1.00000"/>
  <variable name="x_0_5" index="4" value="1.00000"/>
  <variable name="x_0_7" index="6" value="1.00000"/>
  <variable name="x_0_9" index="8" value="1.00000"/>
  <variable name="x_0_11" index="10" value="1.00000"/>
  <variable name="x_0_12" index="11" value="1.00000"/>
  <variable name="x_0_15" index="14" value="1.00000"/>
  <variable name="x_0_16" index="15" value="1.00000"/>
  <variable name="x_0_17" index="16" value="1.00000"/>
  <variable name="x_0_20" index="19" value="1.00000"/>
  <variable name="x_0_22" index="21" value="1.00000"/>
  <variable name="x_1_13" index="34" value="1.00000"/>
  <variable name="x_2_18" index="61" value="1.00000"/>
  <variable name="x_3_0" index="66" value="1.00000"/>
  <variable name="x_4_0" index="88" value="1.00000"/>
  <variable name="x_5_14" index="123" value="1.00000"/>
  <variable name="x_6_8" index="139" value="1.00000"/>
  <variable name="x_7_6" index="160" value="1.00000"/>
  <variable name="x_8_0" index="176" value="1.00000"/>
  <variable name="x_9_0" index="198" value="1.00000"/>
  <variable name="x_10_2" index="222" value="1.00000"/>
  <variable name="x_11_21" index="262" value="1.00000"/>
  <variable name="x_12_19" index="282" value="1.00000"/>
  <variable name="x_13_0" index="286" value="1.00000"/>
  <variable name="x_14_0" index="308" value="1.00000"/>
  <variable name="x_15_0" index="330" value="1.00000"/>
  <variable name="x_16_0" index="352" value="1.00000"/>
  <variable name="x_17_3" index="377" value="1.00000"/>
  <variable name="x_18_0" index="396" value="1.00000"/>
  <variable name="x_19_10" index="428" value="1.00000"/>
  <variable name="x_20_4" index="444" value="1.00000"/>
  <variable name="x_21_0" index="462" value="1.00000"/>
  <variable name="x_22_0" index="484" value="1.00000"/>
  <variable name="u_1" index="506" value="18.00000"/>
  <variable name="u_2" index="507" value="56.00000"/>
  <variable name="u_3" index="508" value="61.00000"/>
  <variable name="u_4" index="509" value="61.00000"/>
  <variable name="u_5" index="510" value="36.00000"/>
  <variable name="u_6" index="511" value="33.00000"/>
  <variable name="u_7" index="512" value="18.00000"/>
  <variable name="u_8" index="513" value="58.00000"/>
  <variable name="u_9" index="514" value="61.00000"/>
  <variable name="u_10" index="515" value="50.00000"/>
  <variable name="u_11" index="516" value="21.00000"/>
  <variable name="u_12" index="517" value="40.00000"/>
  <variable name="u_13" index="518" value="59.00000"/>
  <variable name="u_14" index="519" value="60.00000"/>
  <variable name="u_15" index="520" value="51.00000"/>
  <variable name="u_16" index="521" value="61.00000"/>
  <variable name="u_17" index="522" value="18.00000"/>
  <variable name="u_18" index="523" value="59.00000"/>
  <variable name="u_19" index="524" value="44.00000"/>
  <variable name="u_20" index="525" value="40.00000"/>
  <variable name="u_21" index="526" value="61.00000"/>
  <variable name="u_22" index="527" value="45.00000"/>
 </variables>
</CPLEXSolution>
